0 4844
2401 4725
4802 4629
7203 4551
9604 4480
12005 4419
14406 4378
16807 4336
19208 4273
21609 4242
24010 4203
26411 4176
28812 4155
31213 4136
33614 4109
36015 4093
38416 4089
40817 4081
43218 4075
45619 4073
48020 4065
50421 4062
55223 4052
57624 4048
60025 4044
62426 4033
64827 4025
67228 4023
69629 4022
81634 4021
84035 4019
86436 4018
91238 4014
